\ENCODING=ISO-8859-1
\Problem name: ilog.cplex

Minimize
 obj: n_0 + n_1 + n_2
Subject To
 xi_0,1:          - x_1 + 2 a_0,1 + x_0 + lx_0 + wx_0 + hx_0 <= 2
 xk_0,1:          x_1 - x_0 + 2 b_0,1 + lx_1 + wx_1 + hx_1 <= 2
 yi_0,1:          - y_1 + c_0,1 + y_0 + ly_0 + wy_0 + hy_0 <= 1
 yk_0,1:          y_1 - y_0 + d_0,1 + ly_1 + wy_1 + hy_1 <= 1
 zi_0,1:          - z_1 + 2 r_0,1 + z_0 + lz_0 + wz_0 + hz_0 <= 2
 zk_0,1:          z_1 - z_0 + 2 f_0,1 + lz_1 + wz_1 + hz_1 <= 2
 xi_0,2:          x_0 + lx_0 + wx_0 + hx_0 - x_2 + 2 a_0,2 <= 2
 xk_0,2:          - x_0 + x_2 + 2 b_0,2 + lx_2 + wx_2 + hx_2 <= 2
 yi_0,2:          y_0 + ly_0 + wy_0 + hy_0 - y_2 + c_0,2 <= 1
 yk_0,2:          - y_0 + y_2 + d_0,2 + ly_2 + wy_2 + hy_2 <= 1
 zi_0,2:          z_0 + lz_0 + wz_0 + hz_0 - z_2 + 2 r_0,2 <= 2
 zk_0,2:          - z_0 + z_2 + 2 f_0,2 + lz_2 + wz_2 + hz_2 <= 2
 xi_0,3:          x_0 + lx_0 + wx_0 + hx_0 - x_3 + 2 a_0,3 <= 2
 xk_0,3:          - x_0 + x_3 + 2 b_0,3 + lx_3 + wx_3 + hx_3 <= 2
 yi_0,3:          y_0 + ly_0 + wy_0 + hy_0 - y_3 + c_0,3 <= 1
 yk_0,3:          - y_0 + y_3 + d_0,3 + ly_3 + wy_3 + hy_3 <= 1
 zi_0,3:          z_0 + lz_0 + wz_0 + hz_0 - z_3 + 2 r_0,3 <= 2
 zk_0,3:          - z_0 + z_3 + 2 f_0,3 + lz_3 + wz_3 + hz_3 <= 2
 xi_0,4:          x_0 + lx_0 + wx_0 + hx_0 - x_4 + 2 a_0,4 <= 2
 xk_0,4:          - x_0 + x_4 + 2 b_0,4 + lx_4 + wx_4 + hx_4 <= 2
 yi_0,4:          y_0 + ly_0 + wy_0 + hy_0 - y_4 + c_0,4 <= 1
 yk_0,4:          - y_0 + y_4 + d_0,4 + ly_4 + wy_4 + hy_4 <= 1
 zi_0,4:          z_0 + lz_0 + wz_0 + hz_0 - z_4 + 2 r_0,4 <= 2
 zk_0,4:          - z_0 + z_4 + 2 f_0,4 + lz_4 + wz_4 + hz_4 <= 2
 xi_0,5:          x_0 + lx_0 + wx_0 + hx_0 - x_5 + 2 a_0,5 <= 2
 xk_0,5:          - x_0 + x_5 + 2 b_0,5 + lx_5 + wx_5 + hx_5 <= 2
 yi_0,5:          y_0 + ly_0 + wy_0 + hy_0 - y_5 + c_0,5 <= 1
 yk_0,5:          - y_0 + y_5 + d_0,5 + ly_5 + wy_5 + hy_5 <= 1
 zi_0,5:          z_0 + lz_0 + wz_0 + hz_0 - z_5 + 2 r_0,5 <= 2
 zk_0,5:          - z_0 + z_5 + 2 f_0,5 + lz_5 + wz_5 + hz_5 <= 2
 xi_1,2:          x_1 + lx_1 + wx_1 + hx_1 - x_2 + 2 a_1,2 <= 2
 xk_1,2:          - x_1 + x_2 + lx_2 + wx_2 + hx_2 + 2 b_1,2 <= 2
 yi_1,2:          y_1 + ly_1 + wy_1 + hy_1 - y_2 + c_1,2 <= 1
 yk_1,2:          - y_1 + y_2 + ly_2 + wy_2 + hy_2 + d_1,2 <= 1
 zi_1,2:          z_1 + lz_1 + wz_1 + hz_1 - z_2 + 2 r_1,2 <= 2
 zk_1,2:          - z_1 + z_2 + lz_2 + wz_2 + hz_2 + 2 f_1,2 <= 2
 xi_1,3:          x_1 + lx_1 + wx_1 + hx_1 - x_3 + 2 a_1,3 <= 2
 xk_1,3:          - x_1 + x_3 + lx_3 + wx_3 + hx_3 + 2 b_1,3 <= 2
 yi_1,3:          y_1 + ly_1 + wy_1 + hy_1 - y_3 + c_1,3 <= 1
 yk_1,3:          - y_1 + y_3 + ly_3 + wy_3 + hy_3 + d_1,3 <= 1
 zi_1,3:          z_1 + lz_1 + wz_1 + hz_1 - z_3 + 2 r_1,3 <= 2
 zk_1,3:          - z_1 + z_3 + lz_3 + wz_3 + hz_3 + 2 f_1,3 <= 2
 xi_1,4:          x_1 + lx_1 + wx_1 + hx_1 - x_4 + 2 a_1,4 <= 2
 xk_1,4:          - x_1 + x_4 + lx_4 + wx_4 + hx_4 + 2 b_1,4 <= 2
 yi_1,4:          y_1 + ly_1 + wy_1 + hy_1 - y_4 + c_1,4 <= 1
 yk_1,4:          - y_1 + y_4 + ly_4 + wy_4 + hy_4 + d_1,4 <= 1
 zi_1,4:          z_1 + lz_1 + wz_1 + hz_1 - z_4 + 2 r_1,4 <= 2
 zk_1,4:          - z_1 + z_4 + lz_4 + wz_4 + hz_4 + 2 f_1,4 <= 2
 xi_1,5:          x_1 + lx_1 + wx_1 + hx_1 - x_5 + 2 a_1,5 <= 2
 xk_1,5:          - x_1 + x_5 + lx_5 + wx_5 + hx_5 + 2 b_1,5 <= 2
 yi_1,5:          y_1 + ly_1 + wy_1 + hy_1 - y_5 + c_1,5 <= 1
 yk_1,5:          - y_1 + y_5 + ly_5 + wy_5 + hy_5 + d_1,5 <= 1
 zi_1,5:          z_1 + lz_1 + wz_1 + hz_1 - z_5 + 2 r_1,5 <= 2
 zk_1,5:          - z_1 + z_5 + lz_5 + wz_5 + hz_5 + 2 f_1,5 <= 2
 xi_2,3:          x_2 + lx_2 + wx_2 + hx_2 - x_3 + 2 a_2,3 <= 2
 xk_2,3:          - x_2 + x_3 + lx_3 + wx_3 + hx_3 + 2 b_2,3 <= 2
 yi_2,3:          y_2 + ly_2 + wy_2 + hy_2 - y_3 + c_2,3 <= 1
 yk_2,3:          - y_2 + y_3 + ly_3 + wy_3 + hy_3 + d_2,3 <= 1
 zi_2,3:          z_2 + lz_2 + wz_2 + hz_2 - z_3 + 2 r_2,3 <= 2
 zk_2,3:          - z_2 + z_3 + lz_3 + wz_3 + hz_3 + 2 f_2,3 <= 2
 xi_2,4:          x_2 + lx_2 + wx_2 + hx_2 - x_4 + 2 a_2,4 <= 2
 xk_2,4:          - x_2 + x_4 + lx_4 + wx_4 + hx_4 + 2 b_2,4 <= 2
 yi_2,4:          y_2 + ly_2 + wy_2 + hy_2 - y_4 + c_2,4 <= 1
 yk_2,4:          - y_2 + y_4 + ly_4 + wy_4 + hy_4 + d_2,4 <= 1
 zi_2,4:          z_2 + lz_2 + wz_2 + hz_2 - z_4 + 2 r_2,4 <= 2
 zk_2,4:          - z_2 + z_4 + lz_4 + wz_4 + hz_4 + 2 f_2,4 <= 2
 xi_2,5:          x_2 + lx_2 + wx_2 + hx_2 - x_5 + 2 a_2,5 <= 2
 xk_2,5:          - x_2 + x_5 + lx_5 + wx_5 + hx_5 + 2 b_2,5 <= 2
 yi_2,5:          y_2 + ly_2 + wy_2 + hy_2 - y_5 + c_2,5 <= 1
 yk_2,5:          - y_2 + y_5 + ly_5 + wy_5 + hy_5 + d_2,5 <= 1
 zi_2,5:          z_2 + lz_2 + wz_2 + hz_2 - z_5 + 2 r_2,5 <= 2
 zk_2,5:          - z_2 + z_5 + lz_5 + wz_5 + hz_5 + 2 f_2,5 <= 2
 xi_3,4:          x_3 + lx_3 + wx_3 + hx_3 - x_4 + 2 a_3,4 <= 2
 xk_3,4:          - x_3 + x_4 + lx_4 + wx_4 + hx_4 + 2 b_3,4 <= 2
 yi_3,4:          y_3 + ly_3 + wy_3 + hy_3 - y_4 + c_3,4 <= 1
 yk_3,4:          - y_3 + y_4 + ly_4 + wy_4 + hy_4 + d_3,4 <= 1
 zi_3,4:          z_3 + lz_3 + wz_3 + hz_3 - z_4 + 2 r_3,4 <= 2
 zk_3,4:          - z_3 + z_4 + lz_4 + wz_4 + hz_4 + 2 f_3,4 <= 2
 xi_3,5:          x_3 + lx_3 + wx_3 + hx_3 - x_5 + 2 a_3,5 <= 2
 xk_3,5:          - x_3 + x_5 + lx_5 + wx_5 + hx_5 + 2 b_3,5 <= 2
 yi_3,5:          y_3 + ly_3 + wy_3 + hy_3 - y_5 + c_3,5 <= 1
 yk_3,5:          - y_3 + y_5 + ly_5 + wy_5 + hy_5 + d_3,5 <= 1
 zi_3,5:          z_3 + lz_3 + wz_3 + hz_3 - z_5 + 2 r_3,5 <= 2
 zk_3,5:          - z_3 + z_5 + lz_5 + wz_5 + hz_5 + 2 f_3,5 <= 2
 xi_4,5:          x_4 + lx_4 + wx_4 + hx_4 - x_5 + 2 a_4,5 <= 2
 xk_4,5:          - x_4 + x_5 + lx_5 + wx_5 + hx_5 + 2 b_4,5 <= 2
 yi_4,5:          y_4 + ly_4 + wy_4 + hy_4 - y_5 + c_4,5 <= 1
 yk_4,5:          - y_4 + y_5 + ly_5 + wy_5 + hy_5 + d_4,5 <= 1
 zi_4,5:          z_4 + lz_4 + wz_4 + hz_4 - z_5 + 2 r_4,5 <= 2
 zk_4,5:          - z_4 + z_5 + lz_5 + wz_5 + hz_5 + 2 f_4,5 <= 2
 position_,0,0,1: a_0,1 + b_0,1 + c_0,1 + d_0,1 + r_0,1 + f_0,1 - s_0,0 - s_1,0
                  >= -1
 position_,0,1,1: a_0,1 + b_0,1 + c_0,1 + d_0,1 + r_0,1 + f_0,1 - s_0,1 - s_1,1
                  >= -1
 position_,0,2,1: a_0,1 + b_0,1 + c_0,1 + d_0,1 + r_0,1 + f_0,1 - s_0,2 - s_1,2
                  >= -1
 position_,0,0,2: a_0,2 + b_0,2 + c_0,2 + d_0,2 + r_0,2 + f_0,2 - s_0,0 - s_2,0
                  >= -1
 position_,0,1,2: a_0,2 + b_0,2 + c_0,2 + d_0,2 + r_0,2 + f_0,2 - s_0,1 - s_2,1
                  >= -1
 position_,0,2,2: a_0,2 + b_0,2 + c_0,2 + d_0,2 + r_0,2 + f_0,2 - s_0,2 - s_2,2
                  >= -1
 position_,0,0,3: a_0,3 + b_0,3 + c_0,3 + d_0,3 + r_0,3 + f_0,3 - s_0,0 - s_3,0
                  >= -1
 position_,0,1,3: a_0,3 + b_0,3 + c_0,3 + d_0,3 + r_0,3 + f_0,3 - s_0,1 - s_3,1
                  >= -1
 position_,0,2,3: a_0,3 + b_0,3 + c_0,3 + d_0,3 + r_0,3 + f_0,3 - s_0,2 - s_3,2
                  >= -1
 position_,0,0,4: a_0,4 + b_0,4 + c_0,4 + d_0,4 + r_0,4 + f_0,4 - s_0,0 - s_4,0
                  >= -1
 position_,0,1,4: a_0,4 + b_0,4 + c_0,4 + d_0,4 + r_0,4 + f_0,4 - s_0,1 - s_4,1
                  >= -1
 position_,0,2,4: a_0,4 + b_0,4 + c_0,4 + d_0,4 + r_0,4 + f_0,4 - s_0,2 - s_4,2
                  >= -1
 position_,0,0,5: a_0,5 + b_0,5 + c_0,5 + d_0,5 + r_0,5 + f_0,5 - s_0,0 - s_5,0
                  >= -1
 position_,0,1,5: a_0,5 + b_0,5 + c_0,5 + d_0,5 + r_0,5 + f_0,5 - s_0,1 - s_5,1
                  >= -1
 position_,0,2,5: a_0,5 + b_0,5 + c_0,5 + d_0,5 + r_0,5 + f_0,5 - s_0,2 - s_5,2
                  >= -1
 position_,1,0,2: a_1,2 + b_1,2 + c_1,2 + d_1,2 + r_1,2 + f_1,2 - s_1,0 - s_2,0
                  >= -1
 position_,1,1,2: a_1,2 + b_1,2 + c_1,2 + d_1,2 + r_1,2 + f_1,2 - s_1,1 - s_2,1
                  >= -1
 position_,1,2,2: a_1,2 + b_1,2 + c_1,2 + d_1,2 + r_1,2 + f_1,2 - s_1,2 - s_2,2
                  >= -1
 position_,1,0,3: a_1,3 + b_1,3 + c_1,3 + d_1,3 + r_1,3 + f_1,3 - s_1,0 - s_3,0
                  >= -1
 position_,1,1,3: a_1,3 + b_1,3 + c_1,3 + d_1,3 + r_1,3 + f_1,3 - s_1,1 - s_3,1
                  >= -1
 position_,1,2,3: a_1,3 + b_1,3 + c_1,3 + d_1,3 + r_1,3 + f_1,3 - s_1,2 - s_3,2
                  >= -1
 position_,1,0,4: a_1,4 + b_1,4 + c_1,4 + d_1,4 + r_1,4 + f_1,4 - s_1,0 - s_4,0
                  >= -1
 position_,1,1,4: a_1,4 + b_1,4 + c_1,4 + d_1,4 + r_1,4 + f_1,4 - s_1,1 - s_4,1
                  >= -1
 position_,1,2,4: a_1,4 + b_1,4 + c_1,4 + d_1,4 + r_1,4 + f_1,4 - s_1,2 - s_4,2
                  >= -1
 position_,1,0,5: a_1,5 + b_1,5 + c_1,5 + d_1,5 + r_1,5 + f_1,5 - s_1,0 - s_5,0
                  >= -1
 position_,1,1,5: a_1,5 + b_1,5 + c_1,5 + d_1,5 + r_1,5 + f_1,5 - s_1,1 - s_5,1
                  >= -1
 position_,1,2,5: a_1,5 + b_1,5 + c_1,5 + d_1,5 + r_1,5 + f_1,5 - s_1,2 - s_5,2
                  >= -1
 position_,2,0,3: a_2,3 + b_2,3 + c_2,3 + d_2,3 + r_2,3 + f_2,3 - s_2,0 - s_3,0
                  >= -1
 position_,2,1,3: a_2,3 + b_2,3 + c_2,3 + d_2,3 + r_2,3 + f_2,3 - s_2,1 - s_3,1
                  >= -1
 position_,2,2,3: a_2,3 + b_2,3 + c_2,3 + d_2,3 + r_2,3 + f_2,3 - s_2,2 - s_3,2
                  >= -1
 position_,2,0,4: a_2,4 + b_2,4 + c_2,4 + d_2,4 + r_2,4 + f_2,4 - s_2,0 - s_4,0
                  >= -1
 position_,2,1,4: a_2,4 + b_2,4 + c_2,4 + d_2,4 + r_2,4 + f_2,4 - s_2,1 - s_4,1
                  >= -1
 position_,2,2,4: a_2,4 + b_2,4 + c_2,4 + d_2,4 + r_2,4 + f_2,4 - s_2,2 - s_4,2
                  >= -1
 position_,2,0,5: a_2,5 + b_2,5 + c_2,5 + d_2,5 + r_2,5 + f_2,5 - s_2,0 - s_5,0
                  >= -1
 position_,2,1,5: a_2,5 + b_2,5 + c_2,5 + d_2,5 + r_2,5 + f_2,5 - s_2,1 - s_5,1
                  >= -1
 position_,2,2,5: a_2,5 + b_2,5 + c_2,5 + d_2,5 + r_2,5 + f_2,5 - s_2,2 - s_5,2
                  >= -1
 position_,3,0,4: a_3,4 + b_3,4 + c_3,4 + d_3,4 + r_3,4 + f_3,4 - s_3,0 - s_4,0
                  >= -1
 position_,3,1,4: a_3,4 + b_3,4 + c_3,4 + d_3,4 + r_3,4 + f_3,4 - s_3,1 - s_4,1
                  >= -1
 position_,3,2,4: a_3,4 + b_3,4 + c_3,4 + d_3,4 + r_3,4 + f_3,4 - s_3,2 - s_4,2
                  >= -1
 position_,3,0,5: a_3,5 + b_3,5 + c_3,5 + d_3,5 + r_3,5 + f_3,5 - s_3,0 - s_5,0
                  >= -1
 position_,3,1,5: a_3,5 + b_3,5 + c_3,5 + d_3,5 + r_3,5 + f_3,5 - s_3,1 - s_5,1
                  >= -1
 position_,3,2,5: a_3,5 + b_3,5 + c_3,5 + d_3,5 + r_3,5 + f_3,5 - s_3,2 - s_5,2
                  >= -1
 position_,4,0,5: a_4,5 + b_4,5 + c_4,5 + d_4,5 + r_4,5 + f_4,5 - s_4,0 - s_5,0
                  >= -1
 position_,4,1,5: a_4,5 + b_4,5 + c_4,5 + d_4,5 + r_4,5 + f_4,5 - s_4,1 - s_5,1
                  >= -1
 position_,4,2,5: a_4,5 + b_4,5 + c_4,5 + d_4,5 + r_4,5 + f_4,5 - s_4,2 - s_5,2
                  >= -1
 ct_and_box0:     s_0,0 + s_0,1 + s_0,2  = 1
 ct_and_box1:     s_1,0 + s_1,1 + s_1,2  = 1
 ct_and_box2:     s_2,0 + s_2,1 + s_2,2  = 1
 ct_and_box3:     s_3,0 + s_3,1 + s_3,2  = 1
 ct_and_box4:     s_4,0 + s_4,1 + s_4,2  = 1
 ct_and_box5:     s_5,0 + s_5,1 + s_5,2  = 1
 ctUsed_0:        s_0,0 + s_1,0 + s_2,0 + s_3,0 + s_4,0 + s_5,0 - 7 n_0 <= 0
 ctUsed_1:        s_0,1 + s_1,1 + s_2,1 + s_3,1 + s_4,1 + s_5,1 - 7 n_1 <= 0
 ctUsed_2:        s_0,2 + s_1,2 + s_2,2 + s_3,2 + s_4,2 + s_5,2 - 7 n_2 <= 0
 length_0,0:      x_0 + 2 s_0,0 <= 3
 width_0,0:       y_0 + s_0,0 <= 1
 height_0,0:      z_0 + 2 s_0,0 <= 3
 length_0,1:      x_0 + 2 s_0,1 <= 3
 width_0,1:       y_0 + s_0,1 <= 1
 height_0,1:      z_0 + 2 s_0,1 <= 3
 length_0,2:      x_0 + 2 s_0,2 <= 3
 width_0,2:       y_0 + s_0,2 <= 1
 height_0,2:      z_0 + 2 s_0,2 <= 3
 length_1,0:      x_1 + 2 s_1,0 <= 3
 width_1,0:       y_1 + s_1,0 <= 1
 height_1,0:      z_1 + 2 s_1,0 <= 3
 length_1,1:      x_1 + 2 s_1,1 <= 3
 width_1,1:       y_1 + s_1,1 <= 1
 height_1,1:      z_1 + 2 s_1,1 <= 3
 length_1,2:      x_1 + 2 s_1,2 <= 3
 width_1,2:       y_1 + s_1,2 <= 1
 height_1,2:      z_1 + 2 s_1,2 <= 3
 length_2,0:      x_2 + 2 s_2,0 <= 3
 width_2,0:       y_2 + s_2,0 <= 1
 height_2,0:      z_2 + 2 s_2,0 <= 3
 length_2,1:      x_2 + 2 s_2,1 <= 3
 width_2,1:       y_2 + s_2,1 <= 1
 height_2,1:      z_2 + 2 s_2,1 <= 3
 length_2,2:      x_2 + 2 s_2,2 <= 3
 width_2,2:       y_2 + s_2,2 <= 1
 height_2,2:      z_2 + 2 s_2,2 <= 3
 length_3,0:      x_3 + 2 s_3,0 <= 3
 width_3,0:       y_3 + s_3,0 <= 1
 height_3,0:      z_3 + 2 s_3,0 <= 3
 length_3,1:      x_3 + 2 s_3,1 <= 3
 width_3,1:       y_3 + s_3,1 <= 1
 height_3,1:      z_3 + 2 s_3,1 <= 3
 length_3,2:      x_3 + 2 s_3,2 <= 3
 width_3,2:       y_3 + s_3,2 <= 1
 height_3,2:      z_3 + 2 s_3,2 <= 3
 length_4,0:      x_4 + 2 s_4,0 <= 3
 width_4,0:       y_4 + s_4,0 <= 1
 height_4,0:      z_4 + 2 s_4,0 <= 3
 length_4,1:      x_4 + 2 s_4,1 <= 3
 width_4,1:       y_4 + s_4,1 <= 1
 height_4,1:      z_4 + 2 s_4,1 <= 3
 length_4,2:      x_4 + 2 s_4,2 <= 3
 width_4,2:       y_4 + s_4,2 <= 1
 height_4,2:      z_4 + 2 s_4,2 <= 3
 length_5,0:      x_5 + 2 s_5,0 <= 3
 width_5,0:       y_5 + s_5,0 <= 1
 height_5,0:      z_5 + 2 s_5,0 <= 3
 length_5,1:      x_5 + 2 s_5,1 <= 3
 width_5,1:       y_5 + s_5,1 <= 1
 height_5,1:      z_5 + 2 s_5,1 <= 3
 length_5,2:      x_5 + 2 s_5,2 <= 3
 width_5,2:       y_5 + s_5,2 <= 1
 height_5,2:      z_5 + 2 s_5,2 <= 3
 c199:            lx_0 + ly_0 + lz_0  = 1
 c200:            wx_0 + wy_0 + wz_0  = 1
 c201:            hx_0 + hy_0 + hz_0  = 1
 c202:            lx_0 + wx_0 + hx_0  = 1
 c203:            ly_0 + wy_0 + hy_0  = 1
 c204:            lz_0 + wz_0 + hz_0  = 1
 c205:            lx_1 + ly_1 + lz_1  = 1
 c206:            wx_1 + wy_1 + wz_1  = 1
 c207:            hx_1 + hy_1 + hz_1  = 1
 c208:            lx_1 + wx_1 + hx_1  = 1
 c209:            ly_1 + wy_1 + hy_1  = 1
 c210:            lz_1 + wz_1 + hz_1  = 1
 c211:            lx_2 + ly_2 + lz_2  = 1
 c212:            wx_2 + wy_2 + wz_2  = 1
 c213:            hx_2 + hy_2 + hz_2  = 1
 c214:            lx_2 + wx_2 + hx_2  = 1
 c215:            ly_2 + wy_2 + hy_2  = 1
 c216:            lz_2 + wz_2 + hz_2  = 1
 c217:            lx_3 + ly_3 + lz_3  = 1
 c218:            wx_3 + wy_3 + wz_3  = 1
 c219:            hx_3 + hy_3 + hz_3  = 1
 c220:            lx_3 + wx_3 + hx_3  = 1
 c221:            ly_3 + wy_3 + hy_3  = 1
 c222:            lz_3 + wz_3 + hz_3  = 1
 c223:            lx_4 + ly_4 + lz_4  = 1
 c224:            wx_4 + wy_4 + wz_4  = 1
 c225:            hx_4 + hy_4 + hz_4  = 1
 c226:            lx_4 + wx_4 + hx_4  = 1
 c227:            ly_4 + wy_4 + hy_4  = 1
 c228:            lz_4 + wz_4 + hz_4  = 1
 c229:            lx_5 + ly_5 + lz_5  = 1
 c230:            wx_5 + wy_5 + wz_5  = 1
 c231:            hx_5 + hy_5 + hz_5  = 1
 c232:            lx_5 + wx_5 + hx_5  = 1
 c233:            ly_5 + wy_5 + hy_5  = 1
 c234:            lz_5 + wz_5 + hz_5  = 1
 c235:            n_0 - n_1 >= 0
 c236:            n_1 - n_2 >= 0
Bounds
 0 <= x_1 <= 2
 0 <= a_0,1 <= 1
 0 <= x_0 <= 2
 0 <= lx_0 <= 1
 0 <= wx_0 <= 1
 0 <= hx_0 <= 1
      b_0,1 = 0
 0 <= lx_1 <= 1
 0 <= wx_1 <= 1
 0 <= hx_1 <= 1
 0 <= y_1 <= 2
 0 <= c_0,1 <= 1
 0 <= y_0 <= 2
 0 <= ly_0 <= 1
 0 <= wy_0 <= 1
 0 <= hy_0 <= 1
      d_0,1 = 0
 0 <= ly_1 <= 1
 0 <= wy_1 <= 1
 0 <= hy_1 <= 1
 0 <= z_1 <= 2
 0 <= r_0,1 <= 1
 0 <= z_0 <= 2
 0 <= lz_0 <= 1
 0 <= wz_0 <= 1
 0 <= hz_0 <= 1
      f_0,1 = 0
 0 <= lz_1 <= 1
 0 <= wz_1 <= 1
 0 <= hz_1 <= 1
 0 <= x_2 <= 2
 0 <= a_0,2 <= 1
      b_0,2 = 0
 0 <= lx_2 <= 1
 0 <= wx_2 <= 1
 0 <= hx_2 <= 1
 0 <= y_2 <= 2
 0 <= c_0,2 <= 1
      d_0,2 = 0
 0 <= ly_2 <= 1
 0 <= wy_2 <= 1
 0 <= hy_2 <= 1
 0 <= z_2 <= 2
 0 <= r_0,2 <= 1
      f_0,2 = 0
 0 <= lz_2 <= 1
 0 <= wz_2 <= 1
 0 <= hz_2 <= 1
 0 <= x_3 <= 2
 0 <= a_0,3 <= 1
      b_0,3 = 0
 0 <= lx_3 <= 1
 0 <= wx_3 <= 1
 0 <= hx_3 <= 1
 0 <= y_3 <= 2
 0 <= c_0,3 <= 1
      d_0,3 = 0
 0 <= ly_3 <= 1
 0 <= wy_3 <= 1
 0 <= hy_3 <= 1
 0 <= z_3 <= 2
 0 <= r_0,3 <= 1
      f_0,3 = 0
 0 <= lz_3 <= 1
 0 <= wz_3 <= 1
 0 <= hz_3 <= 1
 0 <= x_4 <= 2
 0 <= a_0,4 <= 1
      b_0,4 = 0
 0 <= lx_4 <= 1
 0 <= wx_4 <= 1
 0 <= hx_4 <= 1
 0 <= y_4 <= 2
 0 <= c_0,4 <= 1
      d_0,4 = 0
 0 <= ly_4 <= 1
 0 <= wy_4 <= 1
 0 <= hy_4 <= 1
 0 <= z_4 <= 2
 0 <= r_0,4 <= 1
      f_0,4 = 0
 0 <= lz_4 <= 1
 0 <= wz_4 <= 1
 0 <= hz_4 <= 1
 0 <= x_5 <= 2
 0 <= a_0,5 <= 1
      b_0,5 = 0
 0 <= lx_5 <= 1
 0 <= wx_5 <= 1
 0 <= hx_5 <= 1
 0 <= y_5 <= 2
 0 <= c_0,5 <= 1
      d_0,5 = 0
 0 <= ly_5 <= 1
 0 <= wy_5 <= 1
 0 <= hy_5 <= 1
 0 <= z_5 <= 2
 0 <= r_0,5 <= 1
      f_0,5 = 0
 0 <= lz_5 <= 1
 0 <= wz_5 <= 1
 0 <= hz_5 <= 1
 0 <= a_1,2 <= 1
      b_1,2 = 0
 0 <= c_1,2 <= 1
      d_1,2 = 0
 0 <= r_1,2 <= 1
      f_1,2 = 0
 0 <= a_1,3 <= 1
      b_1,3 = 0
 0 <= c_1,3 <= 1
      d_1,3 = 0
 0 <= r_1,3 <= 1
      f_1,3 = 0
 0 <= a_1,4 <= 1
      b_1,4 = 0
 0 <= c_1,4 <= 1
      d_1,4 = 0
 0 <= r_1,4 <= 1
      f_1,4 = 0
 0 <= a_1,5 <= 1
      b_1,5 = 0
 0 <= c_1,5 <= 1
      d_1,5 = 0
 0 <= r_1,5 <= 1
      f_1,5 = 0
 0 <= a_2,3 <= 1
      b_2,3 = 0
 0 <= c_2,3 <= 1
      d_2,3 = 0
 0 <= r_2,3 <= 1
      f_2,3 = 0
 0 <= a_2,4 <= 1
      b_2,4 = 0
 0 <= c_2,4 <= 1
      d_2,4 = 0
 0 <= r_2,4 <= 1
      f_2,4 = 0
 0 <= a_2,5 <= 1
      b_2,5 = 0
 0 <= c_2,5 <= 1
      d_2,5 = 0
 0 <= r_2,5 <= 1
      f_2,5 = 0
 0 <= a_3,4 <= 1
      b_3,4 = 0
 0 <= c_3,4 <= 1
      d_3,4 = 0
 0 <= r_3,4 <= 1
      f_3,4 = 0
 0 <= a_3,5 <= 1
      b_3,5 = 0
 0 <= c_3,5 <= 1
      d_3,5 = 0
 0 <= r_3,5 <= 1
      f_3,5 = 0
 0 <= a_4,5 <= 1
      b_4,5 = 0
 0 <= c_4,5 <= 1
      d_4,5 = 0
 0 <= r_4,5 <= 1
      f_4,5 = 0
 0 <= s_0,0 <= 1
 0 <= s_1,0 <= 1
 0 <= s_0,1 <= 1
 0 <= s_1,1 <= 1
 0 <= s_0,2 <= 1
 0 <= s_1,2 <= 1
 0 <= s_2,0 <= 1
 0 <= s_2,1 <= 1
 0 <= s_2,2 <= 1
 0 <= s_3,0 <= 1
 0 <= s_3,1 <= 1
 0 <= s_3,2 <= 1
 0 <= s_4,0 <= 1
 0 <= s_4,1 <= 1
 0 <= s_4,2 <= 1
 0 <= s_5,0 <= 1
 0 <= s_5,1 <= 1
 0 <= s_5,2 <= 1
 0 <= n_0 <= 1
 0 <= n_1 <= 1
 0 <= n_2 <= 1
Generals
 a_0,1  lx_0  wx_0  hx_0  b_0,1  lx_1  wx_1  hx_1  c_0,1  ly_0  wy_0  hy_0 
 d_0,1  ly_1  wy_1  hy_1  r_0,1  lz_0  wz_0  hz_0  f_0,1  lz_1  wz_1  hz_1 
 a_0,2  b_0,2  lx_2  wx_2  hx_2  c_0,2  d_0,2  ly_2  wy_2  hy_2  r_0,2  f_0,2 
 lz_2  wz_2  hz_2  a_0,3  b_0,3  lx_3  wx_3  hx_3  c_0,3  d_0,3  ly_3  wy_3 
 hy_3  r_0,3  f_0,3  lz_3  wz_3  hz_3  a_0,4  b_0,4  lx_4  wx_4  hx_4  c_0,4 
 d_0,4  ly_4  wy_4  hy_4  r_0,4  f_0,4  lz_4  wz_4  hz_4  a_0,5  b_0,5  lx_5 
 wx_5  hx_5  c_0,5  d_0,5  ly_5  wy_5  hy_5  r_0,5  f_0,5  lz_5  wz_5  hz_5 
 a_1,2  b_1,2  c_1,2  d_1,2  r_1,2  f_1,2  a_1,3  b_1,3  c_1,3  d_1,3  r_1,3 
 f_1,3  a_1,4  b_1,4  c_1,4  d_1,4  r_1,4  f_1,4  a_1,5  b_1,5  c_1,5  d_1,5 
 r_1,5  f_1,5  a_2,3  b_2,3  c_2,3  d_2,3  r_2,3  f_2,3  a_2,4  b_2,4  c_2,4 
 d_2,4  r_2,4  f_2,4  a_2,5  b_2,5  c_2,5  d_2,5  r_2,5  f_2,5  a_3,4  b_3,4 
 c_3,4  d_3,4  r_3,4  f_3,4  a_3,5  b_3,5  c_3,5  d_3,5  r_3,5  f_3,5  a_4,5 
 b_4,5  c_4,5  d_4,5  r_4,5  f_4,5  s_0,0  s_1,0  s_0,1  s_1,1  s_0,2  s_1,2 
 s_2,0  s_2,1  s_2,2  s_3,0  s_3,1  s_3,2  s_4,0  s_4,1  s_4,2  s_5,0  s_5,1 
 s_5,2  n_0  n_1  n_2 
End
